Set parameter TokenServer to value "hpc-licenses.hpcc.usc.edu"
Set parameter TimeLimit to value 3600
Gurobi Optimizer version 9.5.1 build v9.5.1rc2 (linux64)
Thread count: 20 physical cores, 20 logical processors, using up to 20 threads
Optimize a model with 6007 rows, 4529 columns and 24534 nonzeros
Model fingerprint: 0x99f39d73
Variable types: 4506 continuous, 23 integer (23 binary)
Coefficient statistics:
  Matrix range     [1e+00, 1e+00]
  Objective range  [2e-04, 1e+00]
  Bounds range     [1e+00, 1e+00]
  RHS range        [1e+00, 2e+02]
Found heuristic solution: objective 255.9175540
Presolve removed 1520 rows and 1515 columns
Presolve time: 0.09s
Presolved: 4487 rows, 3014 columns, 21975 nonzeros
Variable types: 2994 continuous, 20 integer (20 binary)

Root relaxation: objective 2.753083e+02, 2930 iterations, 0.13 seconds (0.14 work units)

    Nodes    |    Current Node    |     Objective Bounds      |     Work
 Expl Unexpl |  Obj  Depth IntInf | Incumbent    BestBd   Gap | It/Node Time

     0     0  275.30826    0    2  255.91755  275.30826  7.58%     -    0s
H    0     0                     262.6263073  275.30826  4.83%     -    0s
     0     0  275.22815    0    2  262.62631  275.22815  4.80%     -    0s
H    0     0                     265.2281291  275.22815  3.77%     -    0s
     0     0  275.11223    0    2  265.22813  275.11223  3.73%     -    0s
     0     0  274.44812    0    3  265.22813  274.44812  3.48%     -    0s
     0     0  274.13470    0    4  265.22813  274.13470  3.36%     -    0s
     0     0  274.12736    0    4  265.22813  274.12736  3.36%     -    0s
H    0     0                     273.2625803  273.73725  0.17%     -    0s
     0     0  273.73725    0    4  273.26258  273.73725  0.17%     -    0s
     0     0  273.73487    0    5  273.26258  273.73487  0.17%     -    0s
     0     0  273.73487    0    4  273.26258  273.73487  0.17%     -    0s
     0     0  273.26258    0    4  273.26258  273.26258  0.00%     -    0s

Cutting planes:
  Gomory: 2
  MIR: 166
  Flow cover: 1
  RLT: 10

Explored 1 nodes (4585 simplex iterations) in 0.91 seconds (0.76 work units)
Thread count was 20 (of 20 available processors)

Solution count 4: 273.263 265.228 262.626 255.918 

Optimal solution found (tolerance 1.00e-04)
Best objective 2.732625802592e+02, best bound 2.732625802592e+02, gap 0.0000%



#########node  1
V1.6
#########node  2
0.0561224489795919,0.943877551020408
#########node  3
1.0,0.0


Total Solving Time 1.3230786323547363
obj value 273.2625802591988
Policy Regret train (Sum) 7.333573780976075
Best Treatment Found train (%) 64.2
treatment classification acc train (%) 31.0
Policy Regret test (Sum) 28.73848887990478
Best Treatment Found test (%) 83.74000000000001
treatment classification acc test (%) 30.29
